(set-option :print-success false)
(set-logic QF_UF)
(declare-sort x25 0)
(declare-sort x148 0)
(declare-fun x110 () x148)
(declare-fun x94 () x148)
(declare-fun x88 () x148)
(declare-fun x1 () x148)
(declare-fun x17 (x148 x148) x148)
(declare-fun x93 (x148 x148) x148)
(declare-fun x112 () x148)
(assert (or (or (and (and (not (= x110 (x93 (x93 x110 x110) x110))) (and (not (= (x93 (x93 x110 x88) x110) x88)) (and (not (= x112 (x93 (x93 x110 x112) x110))) (not (= x1 (x93 (x93 x110 x1) x110)))))) (not (= (x93 (x93 x110 x94) x110) x94))) (or (and (not (= x94 (x93 (x93 x88 x94) x88))) (and (not (= (x93 (x93 x88 x110) x88) x110)) (and (not (= (x93 (x93 x88 x88) x88) x88)) (and (not (= x112 (x93 (x93 x88 x112) x88))) (not (= (x93 (x93 x88 x1) x88) x1)))))) (or (and (and (and (not (= (x93 (x93 x112 x88) x112) x88)) (and (not (= x1 (x93 (x93 x112 x1) x112))) (not (= (x93 (x93 x112 x112) x112) x112)))) (not (= (x93 (x93 x112 x110) x112) x110))) (not (= (x93 (x93 x112 x94) x112) x94))) (and (not (= x94 (x93 (x93 x1 x94) x1))) (and (and (and (not (= (x93 (x93 x1 x112) x1) x112)) (not (= (x93 (x93 x1 x1) x1) x1))) (not (= x88 (x93 (x93 x1 x88) x1)))) (not (= x110 (x93 (x93 x1 x110) x1)))))))) (and (and (not (= (x93 (x93 x94 x110) x94) x110)) (and (not (= (x93 (x93 x94 x88) x94) x88)) (and (not (= (x93 (x93 x94 x112) x94) x112)) (not (= x1 (x93 (x93 x94 x1) x94)))))) (not (= (x93 (x93 x94 x94) x94) x94)))))
(assert (or (or (and (and (and (= x88 (x93 (x93 x88 x110) x110)) (and (= (x93 (x93 x112 x110) x110) x112) (= x1 (x93 (x93 x1 x110) x110)))) (= x110 (x93 (x93 x110 x110) x110))) (= x94 (x93 (x93 x94 x110) x110))) (or (and (= (x93 (x93 x94 x88) x88) x94) (and (and (= x88 (x93 (x93 x88 x88) x88)) (and (= x1 (x93 (x93 x1 x88) x88)) (= (x93 (x93 x112 x88) x88) x112))) (= (x93 (x93 x110 x88) x88) x110))) (or (and (= x94 (x93 (x93 x94 x1) x1)) (and (and (and (= x1 (x93 (x93 x1 x1) x1)) (= (x93 (x93 x112 x1) x1) x112)) (= x88 (x93 (x93 x88 x1) x1))) (= x110 (x93 (x93 x110 x1) x1)))) (and (and (= x110 (x93 (x93 x110 x112) x112)) (and (= (x93 (x93 x88 x112) x112) x88) (and (= x1 (x93 (x93 x1 x112) x112)) (= (x93 (x93 x112 x112) x112) x112)))) (= x94 (x93 (x93 x94 x112) x112)))))) (and (and (and (and (= (x93 (x93 x112 x94) x94) x112) (= (x93 (x93 x1 x94) x94) x1)) (= (x93 (x93 x88 x94) x94) x88)) (= x110 (x93 (x93 x110 x94) x94))) (= (x93 (x93 x94 x94) x94) x94))))
(assert (let ((x42 (x93 x112 x94)) (x103 (x93 x94 x112)) (x113 (x93 x94 x110)) (x85 (x93 x94 x94)) (x132 (x93 x1 x110)) (x9 (x93 x1 x94)) (x64 (x93 x88 x88)) (x121 (x93 x88 x1)) (x4 (x93 x1 x112)) (x140 (x93 x112 x88)) (x107 (x93 x1 x1)) (x62 (x93 x112 x110)) (x48 (x93 x1 x88)) (x87 (x93 x110 x1)) (x102 (x93 x110 x110)) (x128 (x93 x110 x94)) (x137 (x93 x110 x88)) (x14 (x93 x94 x88)) (x36 (x93 x88 x94)) (x40 (x93 x112 x1)) (x84 (x93 x94 x1)) (x39 (x93 x110 x112)) (x71 (x93 x112 x112)) (x35 (x93 x88 x110)) (x61 (x93 x88 x112))) (let ((x100 (= x110 x71)) (x89 (= x94 x35)) (x50 (= x110 x64)) (x52 (= x94 x4)) (x31 (= x4 x1)) (x11 (= x84 x94)) (x44 (= x42 x88)) (x75 (= x1 x140)) (x145 (= x121 x88)) (x5 (= x39 x1)) (x111 (= x42 x110)) (x68 (= x112 x85)) (x83 (= x1 x128)) (x3 (= x36 x88)) (x150 (= x87 x112)) (x77 (= x110 x140)) (x119 (= x110 x35)) (x115 (= x110 x14)) (x136 (= x94 x102)) (x38 (= x88 x128)) (x24 (= x112 x102)) (x8 (= x112 x64)) (x127 (= x94 x62)) (x138 (= x110 x36)) (x130 (= x140 x112)) (x33 (= x35 x112)) (x146 (= x112 x113)) (x63 (= x112 x42)) (x59 (= x62 x88)) (x105 (= x71 x112)) (x72 (= x132 x1)) (x27 (= x36 x1)) (x57 (= x88 x71)) (x98 (= x62 x110)) (x109 (= x39 x110)) (x90 (= x9 x110)) (x29 (= x61 x94)) (x12 (= x1 x137)) (x147 (= x48 x1)) (x45 (= x112 x14)) (x118 (= x35 x1)) (x129 (= x128 x112)) (x74 (= x1 x107)) (x104 (= x103 x112)) (x153 (= x128 x94)) (x151 (= x9 x112)) (x54 (= x1 x85)) (x28 (= x1 x121)) (x106 (= x110 x61)) (x120 (= x103 x94)) (x158 (= x140 x94)) (x141 (= x112 x36)) (x26 (= x88 x48)) (x155 (= x64 x94)) (x81 (= x88 x137)) (x157 (= x102 x88)) (x19 (= x110 x102)) (x108 (= x40 x1)) (x79 (= x110 x132)) (x67 (= x35 x88)) (x80 (= x71 x1)) (x30 (= x14 x1)) (x131 (= x140 x88)) (x55 (= x84 x112)) (x125 (= x61 x1)) (x53 (= x4 x88)) (x122 (= x1 x102)) (x156 (= x39 x88)) (x43 (= x107 x88)) (x34 (= x42 x94)) (x144 (= x48 x94)) (x143 (= x110 x85)) (x82 (= x110 x107)) (x47 (= x132 x88)) (x2 (= x1 x84)) (x32 (= x87 x110)) (x86 (= x88 x103)) (x10 (= x113 x1)) (x117 (= x112 x4)) (x13 (= x1 x62)) (x114 (= x39 x112)) (x124 (= x110 x137)) (x56 (= x88 x40)) (x69 (= x88 x87)) (x154 (= x103 x110)) (x126 (= x137 x94)) (x16 (= x94 x107)) (x99 (= x1 x103)) (x21 (= x94 x87)) (x6 (= x113 x88)) (x22 (= x94 x36)) (x134 (= x110 x84)) (x46 (= x112 x61)) (x60 (= x88 x9)) (x78 (= x121 x112)) (x23 (= x64 x1)) (x142 (= x9 x94)) (x97 (= x48 x112)) (x7 (= x121 x110)) (x91 (= x112 x107)) (x20 (= x42 x1)) (x139 (= x48 x110)) (x15 (= x94 x40)) (x41 (= x1 x9)) (x51 (= x64 x88)) (x18 (= x94 x39)) (x73 (= x112 x137)) (x152 (= x132 x112)) (x76 (= x113 x110)) (x95 (= x94 x85)) (x116 (= x94 x113)) (x92 (= x85 x88)) (x96 (= x110 x40)) (x135 (= x88 x84)) (x101 (= x88 x14)) (x37 (= x110 x128)) (x123 (= x112 x40)) (x66 (= x61 x88)) (x133 (= x71 x94)) (x49 (= x94 x14)) (x159 (= x121 x94)) (x58 (= x1 x87)) (x70 (= x132 x94)) (x65 (= x62 x112)) (x149 (= x4 x110))) (and (and (and (and (and (and (and (or (or (or x7 (or x96 x82)) x32) x134) (or (or (or x139 (or x149 x82)) x79) x90)) (and (and (or (or x47 (or (or x53 x43) x26)) x60) (or (or x69 (or (or x43 x56) x145)) x135)) (and (and (or x151 (or x152 (or (or x91 x117) x97))) (or (or (or (or x91 x123) x78) x150) x55)) (and (or (or x58 (or x28 (or x108 x74))) x2) (or (or x72 (or (or x31 x74) x147)) x41))))) (and (or (or (or x144 (or x16 x52)) x70) x142) (or (or x21 (or (or x15 x16) x159)) x11))) (and (and (or (or x127 (or x158 (or x133 x15))) x34) (or (or (or (or x52 x133) x29) x18) x120)) (and (and (and (or (or x156 (or (or x57 x53) x66)) x86) (or (or (or (or x57 x56) x131) x59) x44)) (and (and (or (or (or x125 (or x31 x80)) x5) x99) (or (or (or x75 (or x108 x80)) x13) x20)) (and (or x63 (or x65 (or x130 (or x105 x123)))) (or x104 (or (or x46 (or x105 x117)) x114))))) (and (or x111 (or x98 (or (or x96 x100) x77))) (or x154 (or (or (or x100 x149) x106) x109)))))) (and (and (or (or (or x155 (or x158 x144)) x126) x49) (or (or x89 (or (or x29 x159) x155)) x22)) (and (and (and (and (or (or x73 (or (or x97 x130) x8)) x45) (or (or (or x8 (or x78 x46)) x33) x141)) (and (or x30 (or (or (or x147 x75) x23) x12)) (or (or (or (or x125 x28) x23) x118) x27))) (and (or x3 (or (or (or x66 x145) x51) x67)) (or (or x81 (or (or x26 x131) x51)) x101))) (and (or (or (or (or x139 x77) x50) x124) x115) (or (or (or x50 (or x7 x106)) x119) x138))))) (and (and (or (or (or x126 (or x18 x21)) x136) x153) (or x116 (or x136 (or (or x70 x127) x89)))) (and (and (and (or x38 (or x157 (or x81 (or x156 x69)))) (or (or (or x67 (or x47 x59)) x157) x6)) (and (and (or x129 (or x24 (or (or x150 x114) x73))) (or (or x24 (or x33 (or x65 x152))) x146)) (and (or x83 (or x122 (or x12 (or x58 x5)))) (or x10 (or (or x118 (or x72 x13)) x122))))) (and (or (or (or x124 (or x109 x32)) x19) x37) (or x76 (or x19 (or x119 (or x79 x98)))))))) (and (and (or x95 (or (or (or x34 x142) x22) x153)) (or x95 (or x116 (or (or x11 x120) x49)))) (and (and (or (or (or (or x134 x154) x115) x76) x143) (or x143 (or x37 (or (or x90 x111) x138)))) (and (and (or x92 (or (or (or x44 x60) x3) x38)) (or (or (or (or x86 x135) x101) x6) x92)) (and (and (or x54 (or (or (or x41 x20) x27) x83)) (or x54 (or (or x30 (or x99 x2)) x10))) (and (or (or (or (or x63 x151) x141) x129) x68) (or (or x146 (or x45 (or x55 x104))) x68))))))))))
(assert (let ((x121 (x93 x88 x88)) (x43 (x93 x110 x112)) (x31 (x93 x110 x110)) (x4 (x93 x1 x112)) (x82 (x93 x112 x110)) (x108 (x93 x88 x110)) (x9 (x93 x1 x88)) (x80 (x93 x94 x1)) (x105 (x93 x110 x94)) (x107 (x93 x112 x1)) (x87 (x93 x110 x1)) (x48 (x93 x112 x112)) (x61 (x93 x94 x94)) (x74 (x93 x1 x1)) (x84 (x93 x1 x110)) (x71 (x93 x94 x112)) (x140 (x93 x112 x94)) (x62 (x93 x94 x88)) (x123 (x93 x1 x94)) (x16 (x93 x110 x88)) (x132 (x93 x88 x1)) (x117 (x93 x94 x110)) (x42 (x93 x88 x94)) (x91 (x93 x88 x112)) (x40 (x93 x112 x88))) (or (or (or (or (and (and (and (= x40 x91) (and (= x48 x48) (= x4 x107))) (= x82 x43)) (= x71 x140)) (and (and (and (and (= x107 x4) (= x74 x74)) (= x132 x9)) (= x84 x87)) (= x123 x80))) (and (and (= x16 x108) (and (= x121 x121) (and (= x132 x9) (= x40 x91)))) (= x42 x62))) (and (and (and (and (= x84 x87) (= x43 x82)) (= x108 x16)) (= x31 x31)) (= x117 x105))) (and (and (= x105 x117) (and (= x62 x42) (and (= x80 x123) (= x140 x71)))) (= x61 x61)))))
(assert (or (or (or (and (not (= x88 (x93 x94 (x93 x88 x94)))) (and (not (= x88 (x93 x110 (x93 x88 x110)))) (and (and (not (= x88 (x93 x112 (x93 x88 x112)))) (not (= x88 (x93 x1 (x93 x88 x1))))) (not (= x88 (x93 x88 (x93 x88 x88))))))) (or (and (and (and (not (= (x93 x88 (x93 x112 x88)) x112)) (and (not (= x112 (x93 x112 (x93 x112 x112)))) (not (= x112 (x93 x1 (x93 x112 x1)))))) (not (= (x93 x110 (x93 x112 x110)) x112))) (not (= (x93 x94 (x93 x112 x94)) x112))) (and (and (and (and (not (= x1 (x93 x112 (x93 x1 x112)))) (not (= x1 (x93 x1 (x93 x1 x1))))) (not (= x1 (x93 x88 (x93 x1 x88))))) (not (= x1 (x93 x110 (x93 x1 x110))))) (not (= x1 (x93 x94 (x93 x1 x94))))))) (and (not (= (x93 x94 (x93 x110 x94)) x110)) (and (not (= x110 (x93 x110 (x93 x110 x110)))) (and (and (not (= (x93 x112 (x93 x110 x112)) x110)) (not (= x110 (x93 x1 (x93 x110 x1))))) (not (= (x93 x88 (x93 x110 x88)) x110)))))) (and (and (and (not (= (x93 x88 (x93 x94 x88)) x94)) (and (not (= x94 (x93 x112 (x93 x94 x112)))) (not (= (x93 x1 (x93 x94 x1)) x94)))) (not (= (x93 x110 (x93 x94 x110)) x94))) (not (= (x93 x94 (x93 x94 x94)) x94)))))
(assert (and (= x110 (x93 x94 x112)) (and (= x88 (x93 x110 x1)) (and (= x1 (x93 x94 x94)) (= x112 (x93 x1 x94))))))
(assert (let ((x52 (x93 x94 x1)) (x53 (x93 x112 x1)) (x131 (x93 x94 x88)) (x26 (x93 x88 x94)) (x137 (x93 x88 x88)) (x149 (x93 x1 x110)) (x23 (x93 x88 x112)) (x39 (x93 x1 x1)) (x57 (x93 x1 x88)) (x78 (x93 x112 x110)) (x159 (x93 x110 x110)) (x64 (x93 x112 x94)) (x96 (x93 x88 x1)) (x75 (x93 x112 x88)) (x15 (x93 x1 x94)) (x56 (x93 x1 x112)) (x100 (x93 x110 x1)) (x158 (x93 x94 x110)) (x145 (x93 x88 x110)) (x46 (x93 x110 x112)) (x125 (x93 x112 x112)) (x35 (x93 x94 x112)) (x144 (x93 x110 x94)) (x66 (x93 x110 x88)) (x150 (x93 x94 x94))) (let ((x152 (= x125 x88)) (x101 (= x39 x94)) (x71 (= x35 x1)) (x24 (= x88 x23)) (x138 (= x66 x94)) (x90 (= x46 x94)) (x60 (= x56 x94)) (x11 (= x94 x52)) (x124 (= x88 x15)) (x33 (= x57 x88)) (x128 (= x56 x88)) (x114 (= x112 x150)) (x14 (= x137 x112)) (x147 (= x125 x112)) (x32 (= x159 x88)) (x41 (= x110 x137)) (x91 (= x23 x1)) (x134 (= x75 x94)) (x20 (= x100 x110)) (x38 (= x94 x57)) (x116 (= x64 x94)) (x106 (= x112 x46)) (x129 (= x110 x26)) (x47 (= x46 x88)) (x95 (= x94 x150)) (x104 (= x110 x145)) (x143 (= x159 x94)) (x121 (= x1 x137)) (x79 (= x35 x88)) (x49 (= x35 x94)) (x68 (= x158 x110)) (x109 (= x88 x52)) (x87 (= x100 x1)) (x102 (= x53 x88)) (x155 (= x112 x52)) (x50 (= x145 x112)) (x63 (= x110 x64)) (x117 (= x158 x1)) (x146 (= x110 x52)) (x119 (= x131 x88)) (x6 (= x94 x53)) (x154 (= x94 x137)) (x67 (= x88 x66)) (x126 (= x88 x150)) (x115 (= x100 x94)) (x107 (= x53 x1)) (x7 (= x112 x149)) (x153 (= x144 x94)) (x120 (= x15 x94)) (x139 (= x78 x112)) (x69 (= x88 x137)) (x113 (= x75 x88)) (x36 (= x112 x96)) (x27 (= x149 x110)) (x13 (= x112 x26)) (x123 (= x15 x1)) (x77 (= x112 x66)) (x18 (= x88 x144)) (x99 (= x110 x57)) (x73 (= x88 x39)) (x98 (= x88 x64)) (x130 (= x112 x23)) (x54 (= x78 x110)) (x132 (= x1 x96)) (x9 (= x1 x57)) (x43 (= x46 x1)) (x10 (= x110 x75)) (x22 (= x158 x94)) (x80 (= x1 x52)) (x45 (= x110 x159)) (x122 (= x144 x112)) (x142 (= x94 x131)) (x76 (= x149 x94)) (x82 (= x78 x1)) (x58 (= x112 x15)) (x59 (= x78 x88)) (x97 (= x57 x112)) (x141 (= x110 x131)) (x157 (= x145 x88)) (x72 (= x131 x112)) (x4 (= x56 x1)) (x8 (= x75 x112)) (x42 (= x1 x26)) (x140 (= x64 x1)) (x12 (= x112 x64)) (x48 (= x125 x1)) (x19 (= x26 x88)) (x61 (= x1 x150)) (x74 (= x39 x1)) (x3 (= x96 x94)) (x89 (= x110 x56)) (x136 (= x125 x110)) (x85 (= x110 x15)) (x135 (= x144 x110)) (x127 (= x110 x53)) (x40 (= x1 x75)) (x133 (= x112 x53)) (x118 (= x158 x112)) (x111 (= x94 x78)) (x65 (= x96 x88)) (x103 (= x39 x112)) (x44 (= x94 x125)) (x105 (= x1 x144)) (x34 (= x94 x26)) (x108 (= x1 x145)) (x29 (= x159 x112)) (x62 (= x1 x131)) (x55 (= x110 x66)) (x28 (= x112 x56)) (x156 (= x100 x88)) (x37 (= x94 x145)) (x86 (= x110 x150)) (x70 (= x39 x110)) (x30 (= x110 x23)) (x92 (= x23 x94)) (x84 (= x149 x1)) (x31 (= x1 x159)) (x81 (= x88 x149)) (x16 (= x66 x1)) (x5 (= x112 x35)) (x2 (= x96 x110)) (x51 (= x112 x100)) (x21 (= x88 x158)) (x83 (= x46 x110)) (x151 (= x35 x110))) (and (and (or (or (and x86 x86) (or (or (or (and x151 x63) (and x146 x85)) (and x141 x129)) (and x68 x135))) (or (or (or (or (or (or (and x10 x30) (or (and x89 x127) (and x136 x136))) (and x83 x54)) (and x63 x151)) (or (or (or (or (and x70 x70) (and x127 x89)) (and x99 x2)) (and x20 x27)) (and x146 x85))) (or (or (or (and x41 x41) (or (and x99 x2) (and x10 x30))) (and x104 x55)) (and x141 x129))) (or (and x68 x135) (or (and x45 x45) (or (or (and x54 x83) (and x20 x27)) (and x55 x104)))))) (and (and (or (or (or (or (or (or (and x51 x7) (and x106 x139)) (and x77 x50)) (and x29 x29)) (and x118 x122)) (or (or (or (or (or (and x8 x130) (or (and x147 x147) (and x28 x133))) (and x106 x139)) (and x12 x5)) (or (or (or (or (and x133 x28) (and x103 x103)) (and x36 x97)) (and x7 x51)) (and x155 x58))) (or (or (and x77 x50) (or (or (and x36 x97) (and x8 x130)) (and x14 x14))) (and x13 x72)))) (or (and x114 x114) (or (and x118 x122) (or (or (and x5 x12) (and x155 x58)) (and x13 x72))))) (or (or (and x61 x61) (or (and x117 x105) (or (or (and x123 x80) (and x140 x71)) (and x42 x62)))) (or (or (and x117 x105) (or (and x31 x31) (or (and x16 x108) (or (and x43 x82) (and x84 x87))))) (or (or (or (and x123 x80) (or (or (and x9 x132) (or (and x107 x4) (and x74 x74))) (and x87 x84))) (or (and x140 x71) (or (and x82 x43) (or (or (and x107 x4) (and x48 x48)) (and x91 x40))))) (or (or (or (and x121 x121) (or (and x9 x132) (and x91 x40))) (and x108 x16)) (and x42 x62)))))) (or (or (or (and x21 x18) (or (and x32 x32) (or (or (and x47 x59) (and x81 x156)) (and x67 x157)))) (or (or (or (or (or (or (and x128 x102) (and x73 x73)) (and x33 x65)) (and x81 x156)) (and x109 x124)) (or (and x98 x79) (or (and x59 x47) (or (and x113 x24) (or (and x152 x152) (and x128 x102)))))) (or (and x19 x119) (or (or (or (and x113 x24) (and x65 x33)) (and x69 x69)) (and x157 x67))))) (or (and x126 x126) (or (or (or (and x124 x109) (and x79 x98)) (and x19 x119)) (and x21 x18)))))) (or (or (or (or (or (or (or (or (and x6 x60) (and x44 x44)) (and x92 x134)) (and x111 x90)) (and x49 x116)) (or (and x120 x11) (or (and x115 x76) (or (or (and x6 x60) (and x101 x101)) (and x38 x3))))) (or (and x142 x34) (or (and x37 x138) (or (or (and x38 x3) (and x92 x134)) (and x154 x154))))) (or (or (or (and x37 x138) (or (and x76 x115) (and x90 x111))) (and x143 x143)) (and x22 x153))) (or (and x95 x95) (or (and x22 x153) (or (or (and x11 x120) (and x116 x49)) (and x34 x142)))))))))
(assert (let ((x91 (x93 x112 x112)) (x132 (x93 x1 x94)) (x71 (x93 x110 x110)) (x74 (x93 x1 x1)) (x107 (x93 x1 x112)) (x123 (x93 x110 x88)) (x40 (x93 x112 x88)) (x42 (x93 x94 x112)) (x140 (x93 x110 x94)) (x16 (x93 x88 x110)) (x117 (x93 x94 x88)) (x4 (x93 x1 x88)) (x121 (x93 x112 x110)) (x80 (x93 x110 x112)) (x82 (x93 x88 x88)) (x87 (x93 x112 x94)) (x84 (x93 x88 x1)) (x9 (x93 x112 x1)) (x31 (x93 x110 x1)) (x108 (x93 x88 x94)) (x105 (x93 x94 x110)) (x61 (x93 x94 x94)) (x48 (x93 x1 x110)) (x43 (x93 x88 x112)) (x62 (x93 x94 x1))) (or (and (and (and (not (= x88 (x93 x117 x117))) (and (not (= (x93 x42 x42) x112)) (not (= (x93 x62 x62) x1)))) (not (= (x93 x105 x105) x110))) (not (= x94 (x93 x61 x61)))) (or (or (and (and (and (and (not (= (x93 x84 x84) x1)) (not (= x112 (x93 x43 x43)))) (not (= (x93 x82 x82) x88))) (not (= (x93 x16 x16) x110))) (not (= (x93 x108 x108) x94))) (or (and (not (= (x93 x87 x87) x94)) (and (and (not (= (x93 x40 x40) x88)) (and (not (= x112 (x93 x91 x91))) (not (= (x93 x9 x9) x1)))) (not (= x110 (x93 x121 x121))))) (and (and (not (= x110 (x93 x48 x48))) (and (and (not (= (x93 x74 x74) x1)) (not (= (x93 x107 x107) x112))) (not (= (x93 x4 x4) x88)))) (not (= x94 (x93 x132 x132)))))) (and (and (and (not (= x88 (x93 x123 x123))) (and (not (= (x93 x80 x80) x112)) (not (= (x93 x31 x31) x1)))) (not (= (x93 x71 x71) x110))) (not (= x94 (x93 x140 x140))))))))
(assert (and (and (not (= x88 x94)) (and (not (= x88 x110)) (and (not (= x94 x112)) (and (not (= x110 x112)) (and (not (= x88 x112)) (and (not (= x94 x1)) (and (not (= x1 x110)) (and (not (= x1 x88)) (not (= x1 x112)))))))))) (not (= x94 x110))))
(assert (let ((x48 (x93 x110 x110)) (x132 (x93 x94 x94)) (x4 (x93 x88 x88)) (x107 (x93 x112 x112)) (x74 (x93 x1 x1))) (or (and (not (= x94 x132)) (and (not (= x48 x94)) (and (and (not (= x74 x94)) (not (= x94 x107))) (not (= x94 x4))))) (or (or (and (not (= x88 x132)) (and (and (and (not (= x88 x74)) (not (= x107 x88))) (not (= x88 x4))) (not (= x88 x48)))) (or (and (not (= x132 x112)) (and (and (not (= x4 x112)) (and (not (= x107 x112)) (not (= x112 x74)))) (not (= x48 x112)))) (and (and (and (not (= x1 x4)) (and (not (= x1 x74)) (not (= x107 x1)))) (not (= x48 x1))) (not (= x1 x132))))) (and (not (= x110 x132)) (and (not (= x48 x110)) (and (not (= x110 x4)) (and (not (= x74 x110)) (not (= x110 x107))))))))))
(assert (let ((x140 (x93 x94 x110)) (x31 (x93 x1 x110)) (x107 (x93 x112 x1)) (x48 (x93 x110 x1)) (x123 (x93 x88 x110)) (x42 (x93 x112 x94)) (x108 (x93 x94 x88)) (x117 (x93 x88 x94)) (x132 (x93 x94 x1)) (x121 (x93 x110 x112)) (x16 (x93 x110 x88)) (x43 (x93 x112 x88)) (x91 (x93 x112 x112)) (x82 (x93 x88 x88)) (x84 (x93 x1 x88)) (x62 (x93 x1 x94)) (x74 (x93 x1 x1)) (x71 (x93 x110 x110)) (x80 (x93 x112 x110)) (x87 (x93 x94 x112)) (x40 (x93 x88 x112)) (x105 (x93 x110 x94)) (x9 (x93 x1 x112)) (x4 (x93 x88 x1)) (x61 (x93 x94 x94))) (and (and (and (not (= x140 x61)) (and (not (= x108 x61)) (and (not (= x108 x140)) (and (and (not (= x140 x87)) (and (not (= x108 x87)) (and (and (not (= x132 x140)) (and (not (= x132 x87)) (not (= x108 x132)))) (not (= x61 x132))))) (not (= x61 x87)))))) (and (and (and (and (not (= x117 x82)) (and (not (= x123 x82)) (and (and (not (= x40 x123)) (and (and (not (= x117 x4)) (and (and (not (= x4 x40)) (not (= x4 x82))) (not (= x123 x4)))) (not (= x40 x82)))) (not (= x40 x117))))) (not (= x117 x123))) (and (and (not (= x80 x42)) (and (not (= x43 x42)) (and (and (and (not (= x80 x91)) (and (not (= x43 x91)) (and (and (and (not (= x107 x91)) (not (= x107 x43))) (not (= x107 x80))) (not (= x42 x107))))) (not (= x42 x91))) (not (= x43 x80))))) (and (and (not (= x62 x84)) (and (not (= x84 x31)) (and (and (not (= x31 x9)) (and (not (= x9 x84)) (and (not (= x74 x62)) (and (and (not (= x74 x84)) (not (= x9 x74))) (not (= x74 x31)))))) (not (= x62 x9))))) (not (= x31 x62))))) (and (and (not (= x16 x105)) (and (and (not (= x105 x121)) (and (and (and (not (= x105 x48)) (and (and (not (= x121 x48)) (not (= x48 x16))) (not (= x48 x71)))) (not (= x16 x121))) (not (= x71 x121)))) (not (= x71 x16)))) (not (= x105 x71))))) (and (and (and (and (and (and (and (not (= x80 x71)) (and (not (= x123 x80)) (and (and (not (= x31 x71)) (and (not (= x123 x31)) (not (= x31 x80)))) (not (= x140 x31))))) (not (= x80 x140))) (not (= x71 x123))) (not (= x140 x123))) (not (= x71 x140))) (and (and (and (not (= x48 x132)) (and (not (= x4 x132)) (and (not (= x48 x4)) (and (and (not (= x48 x107)) (and (and (not (= x132 x74)) (and (not (= x74 x48)) (and (not (= x74 x107)) (not (= x74 x4))))) (not (= x107 x4)))) (not (= x107 x132)))))) (and (and (and (not (= x40 x121)) (and (and (not (= x91 x121)) (and (not (= x91 x40)) (and (not (= x87 x9)) (and (and (not (= x40 x9)) (not (= x9 x91))) (not (= x9 x121)))))) (not (= x87 x91)))) (not (= x87 x40))) (not (= x121 x87)))) (and (and (and (not (= x16 x82)) (and (not (= x43 x108)) (and (not (= x43 x16)) (and (not (= x82 x43)) (and (and (and (not (= x84 x82)) (not (= x43 x84))) (not (= x16 x84))) (not (= x84 x108))))))) (not (= x108 x82))) (not (= x16 x108))))) (and (and (and (and (and (and (and (and (not (= x62 x105)) (and (not (= x62 x117)) (not (= x62 x42)))) (not (= x62 x61))) (not (= x42 x117))) (not (= x105 x42))) (not (= x42 x61))) (not (= x105 x117))) (not (= x61 x117))) (not (= x61 x105)))))))
(assert (not (and (and (= (x93 x94 x110) x112) (and (and (= (x93 x94 x112) x110) (and (= x94 (x93 x94 x1)) (and (= (x93 x110 x94) x110) (and (and (and (and (= (x93 x110 x1) x88) (and (= (x93 x88 x94) x88) (and (= x94 (x93 x88 x110)) (and (and (= (x93 x88 x112) x1) (and (= x110 (x93 x88 x1)) (and (= x94 (x93 x112 x94)) (and (and (and (and (= x112 (x93 x112 x1)) (and (and (and (= (x93 x1 x88) x110) (and (= (x93 x1 x1) x1) (= x94 (x93 x1 x112)))) (= x88 (x93 x1 x110))) (= x112 (x93 x1 x94)))) (= x88 (x93 x112 x112))) (= (x93 x112 x88) x1)) (= x110 (x93 x112 x110)))))) (= x112 (x93 x88 x88)))))) (= x112 (x93 x110 x112))) (= x94 (x93 x110 x88))) (= x1 (x93 x110 x110)))))) (= x88 (x93 x94 x88)))) (= (x93 x94 x94) x1))))
(assert (let ((x87 (= (x93 x94 x94) x94)) (x121 (= (x93 x110 x110) x110)) (x4 (= x112 (x93 x112 x112))) (x40 (= (x93 x88 x88) x88)) (x74 (= x1 (x93 x1 x1)))) (let ((x107 (not x74)) (x48 (not x4)) (x9 (not x121)) (x132 (not x40)) (x91 (not x87))) (or (or (or (and (= x110 (x93 x110 x94)) x91) (or (or (and (= (x93 x110 x88) x110) x132) (or (and (= (x93 x110 x112) x110) x48) (and (= (x93 x110 x1) x110) x107))) (and x9 x121))) (or (or (or (or (and x9 (= x1 (x93 x1 x110))) (or (and x132 (= (x93 x1 x88) x1)) (or (and x74 x107) (and x48 (= x1 (x93 x1 x112)))))) (and x91 (= (x93 x1 x94) x1))) (or (or (or (and (= x112 (x93 x112 x88)) x132) (or (and x48 x4) (and x107 (= x112 (x93 x112 x1))))) (and (= (x93 x112 x110) x112) x9)) (and x91 (= x112 (x93 x112 x94))))) (or (or (and x9 (= (x93 x88 x110) x88)) (or (and x40 x132) (or (and x48 (= (x93 x88 x112) x88)) (and x107 (= x88 (x93 x88 x1)))))) (and (= x88 (x93 x88 x94)) x91)))) (or (or (and (= (x93 x94 x110) x94) x9) (or (and x132 (= (x93 x94 x88) x94)) (or (and x107 (= (x93 x94 x1) x94)) (and (= x94 (x93 x94 x112)) x48)))) (and x87 x91))))))
(assert (let ((x43 (x93 x88 x112)) (x123 (x93 x110 x88)) (x40 (x93 x112 x88)) (x80 (x93 x110 x112)) (x140 (x93 x110 x94)) (x132 (x93 x1 x94)) (x87 (x93 x112 x94)) (x82 (x93 x88 x88)) (x62 (x93 x94 x1)) (x84 (x93 x88 x1)) (x48 (x93 x1 x110)) (x16 (x93 x88 x110)) (x71 (x93 x110 x110)) (x42 (x93 x94 x112)) (x31 (x93 x110 x1)) (x105 (x93 x94 x110)) (x108 (x93 x88 x94)) (x74 (x93 x1 x1)) (x9 (x93 x112 x1)) (x121 (x93 x112 x110)) (x117 (x93 x94 x88)) (x4 (x93 x1 x88)) (x91 (x93 x112 x112)) (x107 (x93 x1 x112)) (x61 (x93 x94 x94))) (and (and (and (and (and (and (and (and (or (or (or (= x74 x88) (or (= x74 x112) (= x74 x1))) (= x110 x74)) (= x74 x94)) (or (= x107 x94) (or (= x110 x107) (or (= x107 x88) (or (= x107 x1) (= x112 x107)))))) (or (or (or (= x4 x88) (or (= x4 x112) (= x1 x4))) (= x110 x4)) (= x94 x4))) (or (or (or (= x88 x48) (or (= x48 x1) (= x48 x112))) (= x48 x110)) (= x48 x94))) (or (= x132 x94) (or (or (= x88 x132) (or (= x112 x132) (= x1 x132))) (= x132 x110)))) (and (or (= x87 x94) (or (= x110 x87) (or (or (= x87 x112) (= x87 x1)) (= x88 x87)))) (and (and (or (or (= x110 x40) (or (= x88 x40) (or (= x40 x112) (= x1 x40)))) (= x94 x40)) (and (or (= x94 x91) (or (= x110 x91) (or (= x88 x91) (or (= x91 x1) (= x91 x112))))) (or (= x9 x94) (or (= x9 x110) (or (= x9 x88) (or (= x9 x1) (= x112 x9))))))) (or (or (= x110 x121) (or (= x88 x121) (or (= x112 x121) (= x1 x121)))) (= x121 x94))))) (and (or (or (or (= x88 x108) (or (= x1 x108) (= x108 x112))) (= x108 x110)) (= x94 x108)) (and (or (= x16 x94) (or (= x110 x16) (or (= x16 x88) (or (= x112 x16) (= x1 x16))))) (and (or (or (= x110 x82) (or (or (= x82 x112) (= x1 x82)) (= x82 x88))) (= x82 x94)) (and (or (or (or (or (= x43 x112) (= x43 x1)) (= x88 x43)) (= x43 x110)) (= x94 x43)) (or (= x94 x84) (or (or (= x84 x88) (or (= x112 x84) (= x84 x1))) (= x110 x84)))))))) (and (and (and (and (or (or (= x110 x80) (or (= x88 x80) (or (= x80 x1) (= x112 x80)))) (= x80 x94)) (or (or (= x110 x31) (or (= x31 x88) (or (= x31 x1) (= x31 x112)))) (= x94 x31))) (or (= x123 x94) (or (= x123 x110) (or (or (= x123 x112) (= x1 x123)) (= x88 x123))))) (or (= x71 x94) (or (or (or (= x71 x112) (= x71 x1)) (= x88 x71)) (= x71 x110)))) (or (= x140 x94) (or (or (= x88 x140) (or (= x140 x1) (= x112 x140))) (= x110 x140))))) (and (and (and (or (or (or (= x88 x117) (or (= x112 x117) (= x1 x117))) (= x110 x117)) (= x94 x117)) (and (or (or (= x110 x62) (or (= x62 x88) (or (= x62 x1) (= x62 x112)))) (= x94 x62)) (or (or (= x110 x42) (or (or (= x42 x1) (= x112 x42)) (= x88 x42))) (= x94 x42)))) (or (= x105 x94) (or (= x110 x105) (or (= x105 x88) (or (= x112 x105) (= x1 x105)))))) (or (= x61 x94) (or (or (or (= x112 x61) (= x61 x1)) (= x61 x88)) (= x110 x61)))))))
(assert (or (or (or (or (and (and (and (not (= x88 (x93 x1 (x93 x1 x88)))) (and (not (= (x93 x1 (x93 x1 x1)) x1)) (not (= (x93 x1 (x93 x1 x112)) x112)))) (not (= (x93 x1 (x93 x1 x110)) x110))) (not (= x94 (x93 x1 (x93 x1 x94))))) (and (and (not (= x110 (x93 x112 (x93 x112 x110)))) (and (and (not (= x1 (x93 x112 (x93 x112 x1)))) (not (= (x93 x112 (x93 x112 x112)) x112))) (not (= (x93 x112 (x93 x112 x88)) x88)))) (not (= x94 (x93 x112 (x93 x112 x94)))))) (and (and (and (not (= (x93 x88 (x93 x88 x88)) x88)) (and (not (= x112 (x93 x88 (x93 x88 x112)))) (not (= x1 (x93 x88 (x93 x88 x1)))))) (not (= x110 (x93 x88 (x93 x88 x110))))) (not (= x94 (x93 x88 (x93 x88 x94)))))) (and (and (not (= (x93 x110 (x93 x110 x110)) x110)) (and (and (not (= x112 (x93 x110 (x93 x110 x112)))) (not (= (x93 x110 (x93 x110 x1)) x1))) (not (= x88 (x93 x110 (x93 x110 x88)))))) (not (= x94 (x93 x110 (x93 x110 x94)))))) (and (and (and (not (= (x93 x94 (x93 x94 x88)) x88)) (and (not (= (x93 x94 (x93 x94 x1)) x1)) (not (= (x93 x94 (x93 x94 x112)) x112)))) (not (= x110 (x93 x94 (x93 x94 x110))))) (not (= (x93 x94 (x93 x94 x94)) x94)))))
(assert (or (or (or (= (x93 x88 x88) x88) (or (= x112 (x93 x112 x112)) (= x1 (x93 x1 x1)))) (= x110 (x93 x110 x110))) (= (x93 x94 x94) x94)))
(check-sat)
(exit)
